
c--------------------------------------------------------------
c	Ferhat Erata
c	CPSC 454/554
c	Tue Nov 26 2019	21:16:52
c--------------------------------------------------------------
s UNSATISFIABLE
c--------------------------------------------------------------
c statistics of ../../bench1/unsat/15-85.cnf:
c [ mem_used: 1189, conflicts: 0, max_lemmas: 2000 ]
c--------------------------------------------------------------
c	Normal termination.
